c   #vars: 122   #clauses: 547   #literals: 1468
c 
p cnf 122 547
-1 -2 0
-3 -4 0
19 20 100 101 0
-5 -6 0
-7 -8 0
-9 -10 0
-11 -12 0
-13 -14 0
-15 -16 0
-17 -18 0
-19 -20 0
-21 -22 0
-23 -24 0
-25 -26 0
-27 -28 0
-29 -30 0
-31 -32 0
31 32 44 -93 0
-34 -35 0
-36 -37 0
-38 -39 0
-40 -41 0
-42 -43 0
-47 57 121 122 0
-45 -46 0
80 81 98 99 0
-47 -48 0
-49 -50 0
-51 -52 0
-53 -54 0
-55 -56 0
-58 -59 0
-60 -61 0
-62 -63 0
-64 -65 0
-66 -67 0
-68 -69 0
-70 -71 0
-72 -73 0
-74 -75 0
-77 -78 0
80 81 97 -110 0
-29 33 -85 86 0
-80 -81 0
-82 -83 0
-84 -85 0
-87 -88 0
-89 -90 0
-91 -92 0
-93 -94 0
27 28 45 46 0
9 10 91 92 0
-95 -96 0
29 30 77 78 0
55 56 77 78 0
25 26 -36 114 0
-98 -99 0
-100 -101 0
-102 -103 0
-104 -105 0
-106 -107 0
-108 -109 0
13 14 87 88 0
-110 -111 0
-112 -113 0
70 71 91 92 0
5 6 77 78 0
-115 -116 0
-117 -118 0
1 2 66 67 0
-119 -120 0
9 10 102 103 0
-121 -122 0
7 8 106 107 0
-1 -23 0
-2 -24 0
21 22 72 73 0
-1 -66 0
-2 -67 0
7 8 87 88 0
-1 -82 0
-2 -83 0
-1 -112 0
-2 -113 0
40 41 108 109 0
-1 -115 0
-2 -116 0
-3 -47 0
-4 -48 0
-3 -53 0
-4 -54 0
76 -108 112 113 0
-3 -58 0
-4 -59 0
27 28 104 105 0
-3 -80 0
-4 -81 0
76 108 109 -112 0
29 30 64 65 0
76 -77 108 109 0
33 84 -111 0
36 37 -80 97 0
33 84 85 -86 0
31 32 74 75 0
33 -85 110 0
62 63 108 109 0
-5 -60 0
-6 -61 0
77 78 115 116 0
-5 -66 0
-6 -67 0
76 77 78 -112 0
-5 -72 0
-6 -73 0
80 81 89 90 0
-5 -77 0
-6 -78 0
13 14 95 96 0
-5 -89 0
-6 -90 0
34 35 117 118 0
-5 -106 0
-6 -107 0
5 6 119 120 0
-5 -119 0
-6 -120 0
42 43 79 -95 0
66 67 104 105 0
-7 -87 0
-8 -88 0
89 90 112 113 0
-7 -91 0
-8 -92 0
42 43 100 101 0
-7 -102 0
-8 -103 0
-62 79 95 96 0
-7 -106 0
-8 -107 0
62 63 68 69 0
-9 -21 0
-10 -22 0
-9 -31 0
-10 -32 0
49 50 117 118 0
-9 -42 0
-10 -43 0
11 12 23 24 0
-42 62 63 79 0
23 24 49 50 0
-9 -91 0
-10 -92 0
-9 -102 0
-10 -103 0
1 2 23 24 0
-9 -112 0
-10 -113 0
34 35 95 96 0
-11 -23 0
-12 -24 0
-13 36 37 114 0
-11 -38 0
-12 -39 0
45 46 57 -121 0
-11 -51 0
-12 -52 0
5 6 66 67 0
-11 -110 0
-12 -111 0
19 20 49 50 0
-13 -70 0
-14 -71 0
40 41 115 116 0
-13 -87 0
-14 -88 0
19 20 106 107 0
-13 -95 0
-14 -96 0
19 20 40 41 0
-13 -100 0
-14 -101 0
62 63 80 81 0
-14 -114 0
-13 -115 0
-14 -116 0
17 18 84 85 0
-15 -27 0
-16 -28 0
17 18 47 48 0
-15 -29 0
-16 -30 0
1 2 115 116 0
-15 -68 0
-16 -69 0
5 6 106 107 0
-15 -98 0
-16 -99 0
15 16 100 101 0
-15 -100 0
-16 -101 0
3 4 53 54 0
-17 -47 0
-18 -48 0
-17 -84 0
-18 -85 0
-17 -98 0
-18 -99 0
-17 -115 0
-18 -116 0
13 14 115 116 0
-17 -121 0
-18 -122 0
3 4 47 48 0
-19 -40 0
-20 -41 0
21 22 51 52 0
-19 -49 0
-20 -50 0
25 26 51 52 0
-19 -68 0
-20 -69 0
25 26 58 59 0
-19 -100 0
-20 -101 0
-19 -106 0
-20 -107 0
-19 -121 0
-20 -122 0
7 8 102 103 0
-21 -51 0
-22 -52 0
3 4 80 81 0
-21 -72 0
-22 -73 0
-21 -89 0
-22 -90 0
27 28 95 96 0
-23 -31 0
-24 -32 0
15 16 27 28 0
-23 -36 0
-24 -37 0
11 12 51 52 0
-23 -49 0
-24 -50 0
13 14 100 101 0
-23 -60 0
-24 -61 0
27 28 117 118 0
-23 -115 0
-24 -116 0
19 20 68 69 0
-25 -45 0
-26 -46 0
64 65 119 120 0
-25 -51 0
-26 -52 0
68 69 93 94 0
-25 -55 0
-26 -56 0
15 16 29 30 0
-25 -58 0
-26 -59 0
15 16 68 69 0
-25 -108 0
-26 -109 0
76 77 78 -108 0
-26 -114 0
27 28 29 30 0
-27 -29 0
-28 -30 0
29 30 74 75 0
-27 -45 0
-28 -46 0
29 30 86 -98 0
-27 -84 0
-28 -85 0
68 69 102 103 0
-27 -95 0
-28 -96 0
53 54 106 107 0
-27 -104 0
-28 -105 0
-27 -117 0
-28 -118 0
1 2 112 113 0
-29 -64 0
-30 -65 0
47 48 93 94 0
-29 -74 0
-30 -75 0
23 24 31 32 0
-29 -77 0
-30 -78 0
-30 -86 0
9 10 31 32 0
-29 -115 0
-30 -116 0
9 10 21 22 0
-45 57 121 122 0
-32 -44 0
-31 -74 0
-32 -75 0
-31 -91 0
-32 -92 0
36 37 102 103 0
66 67 98 99 0
23 24 115 116 0
-31 -119 0
-32 -120 0
11 12 110 111 0
-33 -84 0
31 32 44 -45 0
55 56 93 94 0
44 -45 93 94 0
36 37 82 83 0
-33 -110 0
-31 44 93 94 0
11 12 38 39 0
-34 -55 0
-35 -56 0
21 22 89 90 0
-34 -77 0
-35 -78 0
100 101 104 105 0
-34 -95 0
-35 -96 0
45 46 -47 57 0
-34 -117 0
-35 -118 0
-36 -64 0
-37 -65 0
-36 -74 0
-37 -75 0
70 71 89 90 0
-36 -82 0
-37 -83 0
25 26 45 46 0
-13 25 26 114 0
-37 -97 0
25 26 108 109 0
-36 -102 0
-37 -103 0
7 8 91 92 0
-37 -114 0
5 6 89 90 0
-38 -64 0
-39 -65 0
117 118 121 122 0
-38 -70 0
-39 -71 0
17 18 115 116 0
-38 -82 0
-39 -83 0
-40 -82 0
-41 -83 0
-40 -108 0
-41 -109 0
42 43 112 113 0
-40 -115 0
-41 -116 0
-36 80 81 97 0
-43 -79 0
49 50 58 59 0
-42 -100 0
-43 -101 0
-42 -112 0
-43 -113 0
82 83 98 99 0
47 48 57 -121 0
-44 -46 0
34 35 55 56 0
-45 47 48 57 0
-44 -94 0
45 46 55 56 0
-45 -55 0
-46 -56 0
-42 79 95 96 0
-46 -57 0
55 56 108 109 0
-45 -62 0
-46 -63 0
25 26 55 56 0
-45 -112 0
-46 -113 0
62 63 74 75 0
-31 44 45 46 0
44 45 46 -93 0
38 39 82 83 0
-48 -57 0
-47 -93 0
-48 -94 0
36 37 64 65 0
-49 -58 0
-50 -59 0
-29 33 86 -111 0
-49 -117 0
-50 -118 0
-49 -121 0
-50 -122 0
60 61 64 65 0
-51 -95 0
-52 -96 0
38 39 64 65 0
-51 -102 0
-52 -103 0
3 4 58 59 0
-53 -80 0
-54 -81 0
-53 -91 0
-54 -92 0
76 -77 112 113 0
-53 -106 0
-54 -107 0
-55 -77 0
-56 -78 0
104 105 110 111 0
-55 -93 0
-56 -94 0
23 24 36 37 0
62 63 100 101 0
19 20 121 122 0
-55 -108 0
-56 -109 0
15 16 98 99 0
-57 -122 0
27 28 84 85 0
-58 -95 0
-59 -96 0
45 46 62 63 0
-60 -64 0
-61 -65 0
17 18 98 99 0
-60 -87 0
-61 -88 0
13 14 70 71 0
-62 -68 0
-63 -69 0
-62 -74 0
-63 -75 0
-63 -79 0
77 78 91 92 0
-62 -80 0
-63 -81 0
45 46 112 113 0
-62 -100 0
-63 -101 0
49 50 121 122 0
-62 -108 0
-63 -109 0
9 10 42 43 0
-62 -121 0
-63 -122 0
29 30 -33 86 0
-64 -119 0
-65 -120 0
51 52 102 103 0
36 37 97 -110 0
42 43 -62 79 0
23 24 60 61 0
62 63 79 -95 0
53 54 91 92 0
-66 -98 0
-67 -99 0
62 63 121 122 0
-66 -104 0
-67 -105 0
9 10 112 113 0
-68 -87 0
-69 -88 0
84 85 110 111 0
-68 -93 0
-69 -94 0
38 39 70 71 0
-68 -102 0
-69 -103 0
70 71 82 83 0
-70 -82 0
-71 -83 0
1 2 82 83 0
-70 -89 0
-71 -90 0
40 41 82 83 0
-70 -91 0
-71 -92 0
29 30 115 116 0
-72 -80 0
-73 -81 0
-72 -112 0
-73 -113 0
34 35 77 78 0
-74 -100 0
-75 -101 0
-33 86 98 99 0
-76 -78 0
-29 86 98 99 0
-76 -109 0
-25 36 37 114 0
-76 -113 0
72 73 80 81 0
-77 -91 0
-78 -92 0
53 54 80 81 0
-77 -115 0
-78 -116 0
-79 -96 0
51 52 95 96 0
-80 -89 0
-81 -90 0
68 69 87 88 0
13 14 -36 114 0
-81 -97 0
31 32 91 92 0
-80 -98 0
-81 -99 0
33 86 -98 -111 0
-80 97 110 111 0
31 32 119 120 0
33 -86 110 111 0
5 6 72 73 0
33 -85 86 -98 0
-36 97 110 111 0
89 90 119 120 0
-82 -98 0
-83 -99 0
74 75 100 101 0
-84 -110 0
-85 -111 0
60 61 87 88 0
-86 -99 0
58 59 95 96 0
-89 -112 0
-90 -113 0
-89 -119 0
-90 -120 0
72 73 112 113 0
13 14 -25 114 0
-97 -111 0
-100 -104 0
-101 -105 0
5 6 60 61 0
-104 -110 0
-105 -111 0
17 18 121 122 0
36 37 74 75 0
-117 -121 0
-118 -122 0
